numNurses = 170;
hours = 64;
demand = [32 20 39 22 24 42 31 27 8 11 21 26 18 0 34 35 26 33 26 2 11 1 28 26 3 5 0 25 29 18 6 17 34 6 28 28 17 38 19 32 9 42 25 42 20 14 33 1 25 7 11 6 21 10 6 37 30 36 10 33 20 41 13 31];
minHours = 28;
maxHours = 37;
maxConsec = 22;
maxPresence = 52;